
Gurobi 11.0.2 (mac64[arm], gurobi_cl) logging started Thu Jun 27 20:36:14 2024

Set parameter Username
Set parameter LogFile to value "gurobi.log"
Using license file /Users/sricharanguddanti/gurobi.lic
Academic license - for non-commercial use only - expires 2025-06-28
